Results/Experiment 1 Results/Existing Benchmark/RES_40/i-40-100-20.txt
solutions: 3 nodes: 5  modelTime: 154  solveTime: 27  totalTime: 192  modelSize: 7389  readTime: 11 matchingSize: 20
