Results/Experiment 2 Results/Existing Benchmark/i-40-100-20.lp
clingo version 5.4.0
Reading from tempSRTISolver.lp ...
Solving...
Answer: 1
matched(7,2) matched(9,3) matched(38,4) matched(24,5) matched(1,6) matched(2,7) matched(25,8) matched(3,9) matched(19,10) matched(37,11) matched(28,12) matched(15,13) matched(33,14) matched(13,15) matched(21,16) matched(31,17) matched(32,18) matched(10,19) matched(34,20) matched(16,21) matched(23,22) matched(22,23) matched(5,24) matched(8,25) matched(29,26) matched(39,27) matched(12,28) matched(26,29) matched(40,30) matched(17,31) matched(18,32) matched(14,33) matched(20,34) matched(36,35) matched(35,36) matched(11,37) matched(4,38) matched(27,39) matched(30,40) matched(6,1)
Optimization: 214
OPTIMUM FOUND

Models       : 1
  Optimum    : yes
Optimization : 214
Calls        : 1
Time         : 1.281s (Solving: 0.07s 1st Model: 0.00s Unsat: 0.07s)
CPU Time     : 1.278s
